treewidth/data/ShrikhandeGraph.gr
p tw 16 48
1 2
1 9
1 13
1 14
1 16
1 8
2 9
2 10
2 14
2 15
2 3
9 10
9 11
9 16
9 4
10 11
10 12
10 3
10 5
11 12
11 13
11 4
11 6
12 13
12 14
12 5
12 7
13 14
13 6
13 8
14 15
14 7
15 3
15 4
15 6
15 7
16 4
16 5
16 7
16 8
3 5
3 6
3 8
4 6
4 7
5 7
5 8
6 8
