treewidth/data/ShrikhandeGraph.td
c width = 9, time = 0.209111
s td 5 10 16
b 1 4 6 7 9 10 11 12 13 15 16
b 2 5 6 7 9 10 12 13 14 15 16
b 3 2 5 6 8 9 10 13 14 15 16
b 4 1 2 8 9 13 14 16
b 5 2 3 5 6 8 10 15
3 4
3 5
2 3
1 2
